c A SAT instance generated from a 3-CNF formula that had 21 clauses and 7 variables
p cnf 7 21
-1 -6 2 0
-6 4 -5 0
2 -4 -7 0
7 -2 -4 0
1 2 7 0
-6 3 -7 0
-2 -7 -1 0
7 4 2 0
-3 5 7 0
3 1 -4 0
2 4 3 0
3 -5 2 0
-2 5 -7 0
-7 -4 -3 0
7 -1 -5 0
-1 4 -5 0
-5 1 -2 0
3 2 -5 0
7 2 -4 0
-2 -1 -6 0
4 3 7 0
